
Gurobi 6.5.2 (mac64) logging started Mon Oct 10 08:46:31 2016


Gurobi 6.5.2 (mac64) logging started Mon Oct 10 08:47:16 2016


Gurobi 6.5.2 (mac64) logging started Mon Oct 10 08:47:31 2016


Gurobi 6.5.2 (mac64) logging started Mon Oct 10 08:47:58 2016


Gurobi 6.5.2 (mac64) logging started Mon Oct 10 08:54:20 2016


Gurobi 6.5.2 (mac64) logging started Mon Oct 10 09:03:49 2016


Gurobi 6.5.2 (mac64) logging started Mon Oct 10 10:23:15 2016


Gurobi 6.5.2 (mac64) logging started Mon Oct 10 10:24:03 2016


Gurobi 6.5.2 (mac64) logging started Mon Oct 10 10:27:40 2016


Gurobi 6.5.2 (mac64) logging started Mon Oct 10 10:27:59 2016


Gurobi 6.5.2 (mac64) logging started Mon Oct 10 10:32:09 2016


Gurobi 6.5.2 (mac64) logging started Mon Oct 10 10:34:51 2016


Gurobi 6.5.2 (mac64) logging started Mon Oct 10 10:36:53 2016


Gurobi 6.5.2 (mac64) logging started Mon Oct 10 10:55:28 2016


Gurobi 6.5.2 (mac64) logging started Mon Oct 10 10:55:36 2016


Gurobi 6.5.2 (mac64) logging started Mon Oct 10 10:55:48 2016


Gurobi 6.5.2 (mac64) logging started Mon Oct 10 10:57:23 2016


Gurobi 6.5.2 (mac64) logging started Mon Oct 10 10:58:53 2016


Gurobi 6.5.2 (mac64) logging started Mon Oct 10 11:06:13 2016

Warning: model has pending changes.
File 'groubi_obj.lp' does not contain these changes.

Gurobi 6.5.2 (mac64) logging started Mon Oct 10 13:42:41 2016


Gurobi 6.5.2 (mac64) logging started Mon Oct 10 13:45:01 2016


Gurobi 6.5.2 (mac64) logging started Mon Oct 10 13:47:30 2016


Gurobi 6.5.2 (mac64) logging started Mon Oct 10 13:49:06 2016


Gurobi 6.5.2 (mac64) logging started Mon Oct 10 13:49:58 2016


Gurobi 6.5.2 (mac64) logging started Mon Oct 10 13:50:50 2016


Gurobi 6.5.2 (mac64) logging started Mon Oct 10 14:28:10 2016


Gurobi 6.5.2 (mac64) logging started Mon Oct 10 14:33:07 2016


Gurobi 6.5.2 (mac64) logging started Mon Oct 10 14:38:48 2016


Gurobi 6.5.2 (mac64) logging started Mon Oct 10 14:49:39 2016


Gurobi 6.5.2 (mac64) logging started Tue Oct 11 08:07:58 2016


Gurobi 6.5.2 (mac64) logging started Tue Oct 11 08:31:19 2016


Gurobi 6.5.2 (mac64) logging started Tue Oct 11 08:46:53 2016


Gurobi 6.5.2 (mac64) logging started Tue Oct 11 08:47:44 2016


Gurobi 6.5.2 (mac64) logging started Tue Oct 11 08:48:30 2016


Gurobi 6.5.2 (mac64) logging started Tue Oct 11 08:49:19 2016


Gurobi 6.5.2 (mac64) logging started Tue Oct 11 08:49:44 2016


Gurobi 6.5.2 (mac64) logging started Tue Oct 11 08:50:17 2016


Gurobi 6.5.2 (mac64) logging started Tue Oct 11 08:50:29 2016


Gurobi 6.5.2 (mac64) logging started Tue Oct 11 08:52:17 2016


Gurobi 6.5.2 (mac64) logging started Tue Oct 11 08:55:24 2016


Gurobi 6.5.2 (mac64) logging started Tue Oct 11 08:57:08 2016


Gurobi 6.5.2 (mac64) logging started Tue Oct 11 08:58:30 2016


Gurobi 6.5.2 (mac64) logging started Tue Oct 11 09:04:34 2016


Gurobi 6.5.2 (mac64) logging started Tue Oct 11 09:08:11 2016


Gurobi 6.5.2 (mac64) logging started Tue Oct 11 09:09:30 2016


Gurobi 6.5.2 (mac64) logging started Tue Oct 11 09:11:52 2016


Gurobi 6.5.2 (mac64) logging started Tue Oct 11 09:13:20 2016


Gurobi 6.5.2 (mac64) logging started Tue Oct 11 09:13:51 2016


Gurobi 6.5.2 (mac64) logging started Tue Oct 11 09:15:31 2016


Gurobi 6.5.2 (mac64) logging started Tue Oct 11 09:16:05 2016


Gurobi 6.5.2 (mac64) logging started Tue Oct 11 09:17:02 2016


Gurobi 6.5.2 (mac64) logging started Tue Oct 11 09:27:40 2016


Gurobi 6.5.2 (mac64) logging started Tue Oct 11 09:30:41 2016


Gurobi 6.5.2 (mac64) logging started Tue Oct 11 09:31:31 2016


Gurobi 6.5.2 (mac64) logging started Tue Oct 11 09:32:45 2016


Gurobi 6.5.2 (mac64) logging started Tue Oct 11 09:34:51 2016


Gurobi 6.5.2 (mac64) logging started Tue Oct 11 09:37:19 2016


Gurobi 6.5.2 (mac64) logging started Tue Oct 11 09:39:25 2016


Gurobi 6.5.2 (mac64) logging started Tue Oct 11 09:41:58 2016


Gurobi 6.5.2 (mac64) logging started Tue Oct 11 09:50:30 2016


Gurobi 6.5.2 (mac64) logging started Tue Oct 11 09:50:35 2016


Gurobi 6.5.2 (mac64) logging started Tue Oct 11 09:53:50 2016


Gurobi 6.5.2 (mac64) logging started Tue Oct 11 09:55:58 2016


Gurobi 6.5.2 (mac64) logging started Tue Oct 11 10:52:44 2016


Gurobi 6.5.2 (mac64) logging started Tue Oct 11 10:53:17 2016


Gurobi 6.5.2 (mac64) logging started Tue Oct 11 11:32:16 2016


Gurobi 6.5.2 (mac64) logging started Tue Oct 11 11:50:08 2016


Gurobi 6.5.2 (mac64) logging started Tue Oct 11 11:50:21 2016


Gurobi 6.5.2 (mac64) logging started Tue Oct 11 11:50:27 2016


Gurobi 6.5.2 (mac64) logging started Tue Oct 11 11:53:44 2016


Gurobi 6.5.2 (mac64) logging started Tue Oct 11 11:53:59 2016


Gurobi 6.5.2 (mac64) logging started Tue Oct 11 11:54:18 2016


Gurobi 6.5.2 (mac64) logging started Tue Oct 11 12:14:22 2016


Gurobi 6.5.2 (mac64) logging started Tue Oct 11 14:49:15 2016


Gurobi 6.5.2 (mac64) logging started Tue Oct 11 14:52:53 2016


Gurobi 6.5.2 (mac64) logging started Tue Oct 11 14:56:01 2016


Gurobi 6.5.2 (mac64) logging started Tue Oct 11 15:10:35 2016


Gurobi 6.5.2 (mac64) logging started Tue Oct 11 15:11:30 2016


Gurobi 6.5.2 (mac64) logging started Tue Oct 11 15:12:11 2016


Gurobi 6.5.2 (mac64) logging started Tue Oct 11 15:14:30 2016


Gurobi 6.5.2 (mac64) logging started Tue Oct 11 15:14:40 2016


Gurobi 6.5.2 (mac64) logging started Tue Oct 11 15:14:57 2016


Gurobi 6.5.2 (mac64) logging started Tue Oct 11 15:23:38 2016


Gurobi 6.5.2 (mac64) logging started Tue Oct 11 15:24:11 2016

Warning: constraint name "1 constraint" has a space

Gurobi 6.5.2 (mac64) logging started Tue Oct 11 15:24:17 2016

Warning: constraint name "1 constraint" has a space

Gurobi 6.5.2 (mac64) logging started Tue Oct 11 15:24:29 2016


Gurobi 6.5.2 (mac64) logging started Tue Oct 11 15:55:29 2016


Gurobi 6.5.2 (mac64) logging started Tue Oct 11 15:56:33 2016

Optimize a model with 1 rows, 530 columns and 7 nonzeros
Coefficient statistics:
  Matrix range    [1e+00, 1e+00]
  Objective range [3e-02, 4e+00]
  Bounds range    [1e+00, 1e+00]
  RHS range       [1e+100, 1e+100]
Presolve removed 1 rows and 530 columns
Presolve time: 0.01s
Presolve: All rows and columns removed

Explored 0 nodes (0 simplex iterations) in 0.01 seconds
Thread count was 1 (of 4 available processors)

Optimal solution found (tolerance 1.00e-04)
Warning: max bound violation (1.0000e+100) exceeds tolerance
         (possibly due to large right hand sides)
Best objective 0.000000000000e+00, best bound 0.000000000000e+00, gap 0.0%

Gurobi 6.5.2 (mac64) logging started Wed Oct 12 07:54:17 2016


Gurobi 6.5.2 (mac64) logging started Wed Oct 12 08:08:17 2016


Gurobi 6.5.2 (mac64) logging started Wed Oct 12 08:08:26 2016


Gurobi 6.5.2 (mac64) logging started Wed Oct 12 08:08:38 2016


Gurobi 6.5.2 (mac64) logging started Wed Oct 12 08:16:49 2016


Gurobi 6.5.2 (mac64) logging started Wed Oct 12 08:21:03 2016


Gurobi 6.5.2 (mac64) logging started Wed Oct 12 08:25:40 2016


Gurobi 6.5.2 (mac64) logging started Wed Oct 12 08:26:52 2016


Gurobi 6.5.2 (mac64) logging started Wed Oct 12 08:28:41 2016


Gurobi 6.5.2 (mac64) logging started Wed Oct 12 08:38:09 2016


Gurobi 6.5.2 (mac64) logging started Wed Oct 12 08:55:46 2016


Gurobi 6.5.2 (mac64) logging started Wed Oct 12 08:59:39 2016


Gurobi 6.5.2 (mac64) logging started Wed Oct 12 09:02:00 2016


Gurobi 6.5.2 (mac64) logging started Wed Oct 12 09:05:33 2016


Gurobi 6.5.2 (mac64) logging started Wed Oct 12 09:17:29 2016


Gurobi 6.5.2 (mac64) logging started Wed Oct 12 09:17:40 2016


Gurobi 6.5.2 (mac64) logging started Wed Oct 12 09:21:50 2016


Gurobi 6.5.2 (mac64) logging started Wed Oct 12 09:22:00 2016


Gurobi 6.5.2 (mac64) logging started Wed Oct 12 09:22:40 2016


Gurobi 6.5.2 (mac64) logging started Wed Oct 12 09:23:43 2016


Gurobi 6.5.2 (mac64) logging started Wed Oct 12 10:29:31 2016


Gurobi 6.5.2 (mac64) logging started Wed Oct 12 10:31:01 2016


Gurobi 6.5.2 (mac64) logging started Wed Oct 12 10:32:18 2016


Gurobi 6.5.2 (mac64) logging started Wed Oct 12 10:32:31 2016


Gurobi 6.5.2 (mac64) logging started Wed Oct 12 10:41:01 2016


Gurobi 6.5.2 (mac64) logging started Wed Oct 12 10:41:12 2016


Gurobi 6.5.2 (mac64) logging started Wed Oct 12 10:41:57 2016


Gurobi 6.5.2 (mac64) logging started Wed Oct 12 10:43:04 2016


Gurobi 6.5.2 (mac64) logging started Wed Oct 12 10:45:04 2016


Gurobi 6.5.2 (mac64) logging started Wed Oct 12 10:45:19 2016


Gurobi 6.5.2 (mac64) logging started Wed Oct 12 10:45:26 2016


Gurobi 6.5.2 (mac64) logging started Wed Oct 12 10:50:17 2016


Gurobi 6.5.2 (mac64) logging started Wed Oct 12 10:52:59 2016


Gurobi 6.5.2 (mac64) logging started Wed Oct 12 10:53:15 2016


Gurobi 6.5.2 (mac64) logging started Wed Oct 12 10:54:13 2016


Gurobi 6.5.2 (mac64) logging started Wed Oct 12 10:54:42 2016


Gurobi 6.5.2 (mac64) logging started Wed Oct 12 10:55:17 2016


Gurobi 6.5.2 (mac64) logging started Wed Oct 12 10:55:44 2016


Gurobi 6.5.2 (mac64) logging started Wed Oct 12 10:56:08 2016


Gurobi 6.5.2 (mac64) logging started Wed Oct 12 10:56:29 2016


Gurobi 6.5.2 (mac64) logging started Wed Oct 12 11:00:28 2016


Gurobi 6.5.2 (mac64) logging started Wed Oct 12 11:03:16 2016


Gurobi 6.5.2 (mac64) logging started Wed Oct 12 11:04:06 2016


Gurobi 6.5.2 (mac64) logging started Wed Oct 12 11:04:38 2016


Gurobi 6.5.2 (mac64) logging started Wed Oct 12 11:05:35 2016


Gurobi 6.5.2 (mac64) logging started Wed Oct 12 11:07:22 2016


Gurobi 6.5.2 (mac64) logging started Wed Oct 12 11:13:07 2016


Gurobi 6.5.2 (mac64) logging started Wed Oct 12 11:16:04 2016


Gurobi 6.5.2 (mac64) logging started Wed Oct 12 11:23:03 2016


Gurobi 6.5.2 (mac64) logging started Wed Oct 12 11:42:34 2016


Gurobi 6.5.2 (mac64) logging started Wed Oct 12 12:54:44 2016


Gurobi 6.5.2 (mac64) logging started Wed Oct 12 12:56:34 2016


Gurobi 6.5.2 (mac64) logging started Wed Oct 12 12:57:11 2016


Gurobi 6.5.2 (mac64) logging started Wed Oct 12 14:10:12 2016

Optimize a model with 1 rows, 530 columns and 7 nonzeros
Coefficient statistics:
  Matrix range    [1e+00, 1e+00]
  Objective range [3e-02, 4e+00]
  Bounds range    [1e+00, 1e+00]
  RHS range       [0e+00, 0e+00]
Found heuristic solution: objective 0
Presolve removed 1 rows and 530 columns
Presolve time: 0.00s
Presolve: All rows and columns removed

Explored 0 nodes (0 simplex iterations) in 0.01 seconds
Thread count was 1 (of 4 available processors)

Optimal solution found (tolerance 1.00e-04)
Best objective 0.000000000000e+00, best bound 0.000000000000e+00, gap 0.0%

Gurobi 6.5.2 (mac64) logging started Wed Oct 12 14:26:46 2016


Gurobi 6.5.2 (mac64) logging started Wed Oct 12 23:37:03 2016

Warning for adding constraints: zero or small (< 1e-13) coefficients, ignored
Warning for adding constraints: zero or small (< 1e-13) coefficients, ignored
Warning for adding constraints: zero or small (< 1e-13) coefficients, ignored
Warning for adding constraints: zero or small (< 1e-13) coefficients, ignored
Warning for adding constraints: zero or small (< 1e-13) coefficients, ignored

Gurobi 6.5.2 (mac64) logging started Wed Oct 12 23:37:18 2016


Gurobi 6.5.2 (mac64) logging started Wed Oct 12 23:37:32 2016

Warning for adding constraints: zero or small (< 1e-13) coefficients, ignored

Gurobi 6.5.2 (mac64) logging started Wed Oct 12 23:38:00 2016

Warning for adding constraints: zero or small (< 1e-13) coefficients, ignored

Gurobi 6.5.2 (mac64) logging started Wed Oct 12 23:39:03 2016

Warning for adding constraints: zero or small (< 1e-13) coefficients, ignored
Warning for adding constraints: zero or small (< 1e-13) coefficients, ignored
Warning for adding constraints: zero or small (< 1e-13) coefficients, ignored
Warning for adding constraints: zero or small (< 1e-13) coefficients, ignored
Warning for adding constraints: zero or small (< 1e-13) coefficients, ignored
Optimize a model with 6 rows, 530 columns and 13 nonzeros
Coefficient statistics:
  Matrix range    [1e+00, 1e+00]
  Objective range [3e-02, 4e+00]
  Bounds range    [1e+00, 1e+00]
  RHS range       [4e+01, 2e+02]
Found heuristic solution: objective 0
Presolve removed 6 rows and 530 columns
Presolve time: 0.01s
Presolve: All rows and columns removed

Explored 0 nodes (0 simplex iterations) in 0.01 seconds
Thread count was 1 (of 4 available processors)

Optimal solution found (tolerance 1.00e-04)
Best objective 0.000000000000e+00, best bound 0.000000000000e+00, gap 0.0%

Gurobi 6.5.2 (mac64) logging started Wed Oct 12 23:43:19 2016


Gurobi 6.5.2 (mac64) logging started Wed Oct 12 23:49:59 2016

Optimize a model with 6 rows, 530 columns and 35 nonzeros
Coefficient statistics:
  Matrix range    [1e+00, 1e+00]
  Objective range [3e-02, 4e+00]
  Bounds range    [1e+00, 1e+00]
  RHS range       [4e+01, 2e+02]
Found heuristic solution: objective 47.0412
Presolve removed 6 rows and 530 columns
Presolve time: 0.00s
Presolve: All rows and columns removed

Explored 0 nodes (0 simplex iterations) in 0.00 seconds
Thread count was 1 (of 4 available processors)

Optimal solution found (tolerance 1.00e-04)
Best objective 2.089260000000e+01, best bound 2.089260000000e+01, gap 0.0%

Gurobi 6.5.2 (mac64) logging started Thu Oct 13 00:33:48 2016

Optimize a model with 6 rows, 530 columns and 35 nonzeros
Coefficient statistics:
  Matrix range    [1e+00, 1e+00]
  Objective range [3e-02, 4e+00]
  Bounds range    [1e+00, 1e+00]
  RHS range       [4e+01, 2e+02]
Found heuristic solution: objective 47.0412
Presolve removed 6 rows and 530 columns
Presolve time: 0.00s
Presolve: All rows and columns removed

Explored 0 nodes (0 simplex iterations) in 0.00 seconds
Thread count was 1 (of 4 available processors)

Optimal solution found (tolerance 1.00e-04)
Best objective 2.089260000000e+01, best bound 2.089260000000e+01, gap 0.0%

Gurobi 6.5.2 (mac64) logging started Thu Oct 13 00:35:23 2016


Gurobi 6.5.2 (mac64) logging started Thu Oct 13 00:36:15 2016

Optimize a model with 6 rows, 530 columns and 35 nonzeros
Coefficient statistics:
  Matrix range    [1e+00, 1e+00]
  Objective range [3e-02, 4e+00]
  Bounds range    [1e+00, 1e+00]
  RHS range       [4e+01, 2e+02]
Found heuristic solution: objective 47.0412
Presolve removed 6 rows and 530 columns
Presolve time: 0.00s
Presolve: All rows and columns removed

Explored 0 nodes (0 simplex iterations) in 0.00 seconds
Thread count was 1 (of 4 available processors)

Optimal solution found (tolerance 1.00e-04)
Best objective 2.089260000000e+01, best bound 2.089260000000e+01, gap 0.0%

Gurobi 6.5.2 (mac64) logging started Thu Oct 13 00:37:01 2016

Optimize a model with 6 rows, 530 columns and 35 nonzeros
Coefficient statistics:
  Matrix range    [1e+00, 1e+00]
  Objective range [3e-02, 4e+00]
  Bounds range    [1e+00, 1e+00]
  RHS range       [4e+01, 2e+02]
Found heuristic solution: objective 47.0412
Presolve removed 6 rows and 530 columns
Presolve time: 0.00s
Presolve: All rows and columns removed

Explored 0 nodes (0 simplex iterations) in 0.00 seconds
Thread count was 1 (of 4 available processors)

Optimal solution found (tolerance 1.00e-04)
Best objective 2.089260000000e+01, best bound 2.089260000000e+01, gap 0.0%

Gurobi 6.5.2 (mac64) logging started Thu Oct 13 00:42:11 2016

Optimize a model with 6 rows, 530 columns and 35 nonzeros
Coefficient statistics:
  Matrix range    [1e+00, 1e+00]
  Objective range [3e-02, 4e+00]
  Bounds range    [1e+00, 1e+00]
  RHS range       [4e+01, 2e+02]
Found heuristic solution: objective 47.0412
Presolve removed 6 rows and 530 columns
Presolve time: 0.00s
Presolve: All rows and columns removed

Explored 0 nodes (0 simplex iterations) in 0.00 seconds
Thread count was 1 (of 4 available processors)

Optimal solution found (tolerance 1.00e-04)
Best objective 2.089260000000e+01, best bound 2.089260000000e+01, gap 0.0%

Gurobi 6.5.2 (mac64) logging started Thu Oct 13 00:47:51 2016


Gurobi 6.5.2 (mac64) logging started Thu Oct 13 00:48:23 2016


Gurobi 6.5.2 (mac64) logging started Thu Oct 13 01:01:35 2016


Gurobi 6.5.2 (mac64) logging started Thu Oct 13 01:03:34 2016


Gurobi 6.5.2 (mac64) logging started Thu Oct 13 01:05:31 2016


Gurobi 6.5.2 (mac64) logging started Thu Oct 13 01:08:44 2016


Gurobi 6.5.2 (mac64) logging started Thu Oct 13 01:12:02 2016


Gurobi 6.5.2 (mac64) logging started Thu Oct 13 08:00:09 2016


Gurobi 6.5.2 (mac64) logging started Thu Oct 13 08:00:58 2016


Gurobi 6.5.2 (mac64) logging started Thu Oct 13 08:01:42 2016


Gurobi 6.5.2 (mac64) logging started Thu Oct 13 08:02:00 2016


Gurobi 6.5.2 (mac64) logging started Thu Oct 13 08:02:17 2016


Gurobi 6.5.2 (mac64) logging started Thu Oct 13 08:04:25 2016


Gurobi 6.5.2 (mac64) logging started Thu Oct 13 09:42:17 2016


Gurobi 6.5.2 (mac64) logging started Thu Oct 13 09:44:03 2016


Gurobi 6.5.2 (mac64) logging started Thu Oct 13 09:44:12 2016


Gurobi 6.5.2 (mac64) logging started Thu Oct 13 09:55:30 2016


Gurobi 6.5.2 (mac64) logging started Thu Oct 13 09:57:28 2016


Gurobi 6.5.2 (mac64) logging started Thu Oct 13 10:01:53 2016


Gurobi 6.5.2 (mac64) logging started Thu Oct 13 10:02:03 2016


Gurobi 6.5.2 (mac64) logging started Thu Oct 13 10:08:00 2016


Gurobi 6.5.2 (mac64) logging started Thu Oct 13 10:08:38 2016


Gurobi 6.5.2 (mac64) logging started Thu Oct 13 10:10:41 2016


Gurobi 6.5.2 (mac64) logging started Thu Oct 13 10:16:53 2016


Gurobi 6.5.2 (mac64) logging started Thu Oct 13 10:32:32 2016

Optimize a model with 60 rows, 530 columns and 350 nonzeros
Coefficient statistics:
  Matrix range    [1e+00, 1e+00]
  Objective range [3e-02, 4e+00]
  Bounds range    [1e+00, 1e+00]
  RHS range       [4e+01, 2e+02]
Found heuristic solution: objective 268.818
Presolve removed 60 rows and 530 columns
Presolve time: 0.01s
Presolve: All rows and columns removed

Explored 0 nodes (0 simplex iterations) in 0.01 seconds
Thread count was 1 (of 4 available processors)

Optimal solution found (tolerance 1.00e-04)
Best objective 1.466039284137e+02, best bound 1.466039284137e+02, gap 0.0%

Gurobi 6.5.2 (mac64) logging started Thu Oct 13 14:14:50 2016

Optimize a model with 60 rows, 530 columns and 350 nonzeros
Coefficient statistics:
  Matrix range    [1e+00, 1e+00]
  Objective range [3e-02, 4e+00]
  Bounds range    [1e+00, 1e+00]
  RHS range       [4e+01, 2e+02]
Found heuristic solution: objective 268.818
Presolve removed 60 rows and 530 columns
Presolve time: 0.00s
Presolve: All rows and columns removed

Explored 0 nodes (0 simplex iterations) in 0.00 seconds
Thread count was 1 (of 4 available processors)

Optimal solution found (tolerance 1.00e-04)
Best objective 1.466039284137e+02, best bound 1.466039284137e+02, gap 0.0%

Gurobi 6.5.2 (mac64) logging started Thu Oct 13 15:51:30 2016


Gurobi 6.5.2 (mac64) logging started Thu Oct 13 15:51:47 2016


Gurobi 6.5.2 (mac64) logging started Thu Oct 13 15:52:22 2016


Gurobi 6.5.2 (mac64) logging started Thu Oct 13 15:53:36 2016


Gurobi 6.5.2 (mac64) logging started Thu Oct 13 15:53:53 2016


Gurobi 6.5.2 (mac64) logging started Thu Oct 13 15:54:30 2016


Gurobi 6.5.2 (mac64) logging started Thu Oct 13 15:56:01 2016


Gurobi 6.5.2 (mac64) logging started Thu Oct 13 15:56:34 2016


Gurobi 6.5.2 (mac64) logging started Thu Oct 13 15:57:02 2016


Gurobi 6.5.2 (mac64) logging started Thu Oct 13 15:57:11 2016


Gurobi 6.5.2 (mac64) logging started Thu Oct 13 15:58:40 2016


Gurobi 6.5.2 (mac64) logging started Thu Oct 13 15:58:59 2016


Gurobi 6.5.2 (mac64) logging started Thu Oct 13 15:59:09 2016


Gurobi 6.5.2 (mac64) logging started Thu Oct 13 16:02:14 2016


Gurobi 6.5.2 (mac64) logging started Thu Oct 13 16:06:54 2016


Gurobi 6.5.2 (mac64) logging started Thu Oct 13 16:07:30 2016


Gurobi 6.5.2 (mac64) logging started Thu Oct 13 16:09:45 2016


Gurobi 6.5.2 (mac64) logging started Thu Oct 13 16:11:46 2016


Gurobi 6.5.2 (mac64) logging started Thu Oct 13 16:13:16 2016


Gurobi 6.5.2 (mac64) logging started Thu Oct 13 16:30:14 2016


Gurobi 6.5.2 (mac64) logging started Thu Oct 13 16:31:21 2016


Gurobi 6.5.2 (mac64) logging started Thu Oct 13 16:31:59 2016


Gurobi 6.5.2 (mac64) logging started Thu Oct 13 16:32:37 2016


Gurobi 6.5.2 (mac64) logging started Thu Oct 13 16:33:05 2016


Gurobi 6.5.2 (mac64) logging started Thu Oct 13 16:38:07 2016


Gurobi 6.5.2 (mac64) logging started Thu Oct 13 16:39:11 2016


Gurobi 6.5.2 (mac64) logging started Thu Oct 13 16:41:31 2016


Gurobi 6.5.2 (mac64) logging started Thu Oct 13 16:41:47 2016


Gurobi 6.5.2 (mac64) logging started Thu Oct 13 16:44:00 2016


Gurobi 6.5.2 (mac64) logging started Thu Oct 13 16:45:51 2016


Gurobi 6.5.2 (mac64) logging started Thu Oct 13 16:47:34 2016


Gurobi 6.5.2 (mac64) logging started Thu Oct 13 16:47:44 2016


Gurobi 6.5.2 (mac64) logging started Thu Oct 13 16:51:41 2016


Gurobi 6.5.2 (mac64) logging started Thu Oct 13 16:54:57 2016


Gurobi 6.5.2 (mac64) logging started Thu Oct 13 16:55:21 2016


Gurobi 6.5.2 (mac64) logging started Thu Oct 13 16:59:30 2016


Gurobi 6.5.2 (mac64) logging started Thu Oct 13 17:01:09 2016


Gurobi 6.5.2 (mac64) logging started Thu Oct 13 17:01:27 2016


Gurobi 6.5.2 (mac64) logging started Thu Oct 13 17:09:08 2016


Gurobi 6.5.2 (mac64) logging started Thu Oct 13 19:47:13 2016


Gurobi 6.5.2 (mac64) logging started Thu Oct 13 19:48:23 2016


Gurobi 6.5.2 (mac64) logging started Thu Oct 13 21:04:16 2016


Gurobi 6.5.2 (mac64) logging started Thu Oct 13 21:06:21 2016


Gurobi 6.5.2 (mac64) logging started Thu Oct 13 21:06:50 2016


Gurobi 6.5.2 (mac64) logging started Thu Oct 13 21:09:32 2016


Gurobi 6.5.2 (mac64) logging started Thu Oct 13 21:10:35 2016


Gurobi 6.5.2 (mac64) logging started Fri Oct 14 03:42:37 2016

Optimize a model with 0 rows, 530 columns and 0 nonzeros
Coefficient statistics:
  Matrix range    [0e+00, 0e+00]
  Objective range [3e-02, 4e+00]
  Bounds range    [1e+00, 1e+00]
  RHS range       [0e+00, 0e+00]
Found heuristic solution: objective 0
Presolve removed 0 rows and 530 columns
Presolve time: 0.01s
Presolve: All rows and columns removed

Explored 0 nodes (0 simplex iterations) in 0.01 seconds
Thread count was 1 (of 4 available processors)

Optimal solution found (tolerance 1.00e-04)
Best objective 0.000000000000e+00, best bound 0.000000000000e+00, gap 0.0%

Gurobi 6.5.2 (mac64) logging started Fri Oct 14 11:13:03 2016

Optimize a model with 0 rows, 530 columns and 0 nonzeros
Coefficient statistics:
  Matrix range    [0e+00, 0e+00]
  Objective range [3e-02, 4e+00]
  Bounds range    [1e+00, 1e+00]
  RHS range       [0e+00, 0e+00]
Found heuristic solution: objective 0
Presolve removed 0 rows and 530 columns
Presolve time: 0.01s
Presolve: All rows and columns removed

Explored 0 nodes (0 simplex iterations) in 0.01 seconds
Thread count was 1 (of 4 available processors)

Optimal solution found (tolerance 1.00e-04)
Best objective 0.000000000000e+00, best bound 0.000000000000e+00, gap 0.0%

Gurobi 6.5.2 (mac64) logging started Fri Oct 14 11:15:24 2016


Gurobi 6.5.2 (mac64) logging started Fri Oct 14 13:25:25 2016


Gurobi 6.5.2 (mac64) logging started Fri Oct 14 13:44:14 2016


Gurobi 6.5.2 (mac64) logging started Fri Oct 14 13:46:20 2016


Gurobi 6.5.2 (mac64) logging started Fri Oct 14 13:59:03 2016


Gurobi 6.5.2 (mac64) logging started Fri Oct 14 14:00:52 2016


Gurobi 6.5.2 (mac64) logging started Fri Oct 14 14:08:49 2016


Gurobi 6.5.2 (mac64) logging started Fri Oct 14 14:10:32 2016


Gurobi 6.5.2 (mac64) logging started Fri Oct 14 14:37:08 2016


Gurobi 6.5.2 (mac64) logging started Fri Oct 14 14:37:50 2016


Gurobi 6.5.2 (mac64) logging started Fri Oct 14 15:35:43 2016


Gurobi 6.5.2 (mac64) logging started Fri Oct 14 15:55:10 2016


Gurobi 6.5.2 (mac64) logging started Fri Oct 14 15:57:07 2016


Gurobi 6.5.2 (mac64) logging started Fri Oct 14 15:57:19 2016


Gurobi 6.5.2 (mac64) logging started Fri Oct 14 15:58:03 2016


Gurobi 6.5.2 (mac64) logging started Fri Oct 14 15:58:41 2016


Gurobi 6.5.2 (mac64) logging started Fri Oct 14 15:59:20 2016


Gurobi 6.5.2 (mac64) logging started Fri Oct 14 16:02:18 2016


Gurobi 6.5.2 (mac64) logging started Fri Oct 14 16:04:46 2016


Gurobi 6.5.2 (mac64) logging started Fri Oct 14 16:23:07 2016


Gurobi 6.5.2 (mac64) logging started Fri Oct 14 16:24:43 2016


Gurobi 6.5.2 (mac64) logging started Fri Oct 14 16:31:16 2016


Gurobi 6.5.2 (mac64) logging started Fri Oct 14 16:32:33 2016


Gurobi 6.5.2 (mac64) logging started Fri Oct 14 16:35:36 2016


Gurobi 6.5.2 (mac64) logging started Fri Oct 14 16:37:43 2016


Gurobi 6.5.2 (mac64) logging started Fri Oct 14 16:40:43 2016


Gurobi 6.5.2 (mac64) logging started Fri Oct 14 16:42:54 2016


Gurobi 6.5.2 (mac64) logging started Fri Oct 14 16:49:35 2016


Gurobi 6.5.2 (mac64) logging started Fri Oct 14 17:08:04 2016


Gurobi 6.5.2 (mac64) logging started Fri Oct 14 17:08:22 2016


Gurobi 6.5.2 (mac64) logging started Fri Oct 14 20:47:47 2016


Gurobi 6.5.2 (mac64) logging started Fri Oct 14 20:49:29 2016


Gurobi 6.5.2 (mac64) logging started Fri Oct 14 21:09:37 2016


Gurobi 6.5.2 (mac64) logging started Fri Oct 14 21:09:54 2016


Gurobi 6.5.2 (mac64) logging started Fri Oct 14 21:11:18 2016


Gurobi 6.5.2 (mac64) logging started Fri Oct 14 21:11:38 2016


Gurobi 6.5.2 (mac64) logging started Fri Oct 14 21:13:48 2016


Gurobi 6.5.2 (mac64) logging started Fri Oct 14 22:06:58 2016


Gurobi 6.5.2 (mac64) logging started Fri Oct 14 22:20:59 2016


Gurobi 6.5.2 (mac64) logging started Fri Oct 14 22:23:57 2016


Gurobi 6.5.2 (mac64) logging started Fri Oct 14 23:36:29 2016


Gurobi 6.5.2 (mac64) logging started Fri Oct 14 23:42:52 2016


Gurobi 6.5.2 (mac64) logging started Fri Oct 14 23:55:09 2016


Gurobi 6.5.2 (mac64) logging started Fri Oct 14 23:59:26 2016


Gurobi 6.5.2 (mac64) logging started Sat Oct 15 00:00:43 2016


Gurobi 6.5.2 (mac64) logging started Sat Oct 15 00:04:08 2016


Gurobi 6.5.2 (mac64) logging started Sat Oct 15 00:05:00 2016

